language ESSENCE' 1.0

letting jobs = 102
letting horizon = 819
letting resourcesRenew = 2
letting resourcesNonrenew = 2
letting resourceLimits = [92, 87, 410, 425]
letting successors = [[2, 3, 4, 5, 6, 7, 8, 9, 10, 11, 12, 13, 14, 15, 16, 17, 18, 19, 20, 21, 22, 23, 24, 26, 27, 29, 32, 33, 34, 35, 38, 42, 47, 50], [99, 79, 78, 77, 72, 58, 57, 56, 53, 49, 48, 46, 45, 44, 43, 41, 40, 39, 37, 31, 30], [101, 100, 99, 77, 76, 75, 74, 70, 64, 63, 62, 58, 57, 56, 55, 52, 51, 46, 41, 40, 31], [99, 79, 78, 72, 65, 60, 58, 53, 48, 44, 43, 40, 39, 37, 30], [100, 79, 77, 76, 73, 72, 63, 58, 53, 51, 44, 36, 28, 25], [100, 99, 76, 72, 56, 54, 49, 46, 41, 40, 37, 36, 31], [101, 100, 78, 77, 76, 75, 74, 73, 72, 68, 66, 64, 63, 62, 56, 54, 52, 51, 48, 31], [99, 98, 96, 93, 76, 72, 70, 68, 67, 63, 62, 59, 56, 53, 52, 46, 31], [99, 98, 96, 95, 94, 93, 90, 79, 78, 77, 75, 73, 72, 69, 64, 62, 56, 55, 53, 43], [100, 98, 97, 94, 93, 90, 88, 80, 79, 76, 75, 73, 72, 71, 70, 69, 66, 62, 60, 58, 57, 55], [101, 100, 99, 98, 97, 96, 95, 94, 91, 90, 89, 78, 76, 75, 72, 71, 70, 69, 68, 64, 63, 60, 56, 55], [80, 73, 68, 64, 62, 60, 57, 53, 48, 46, 30], [99, 98, 96, 95, 94, 91, 89, 88, 78, 75, 74, 72, 69, 68, 65, 64, 61, 55, 54, 51], [101, 100, 99, 96, 93, 77, 72, 68, 63, 55, 46, 31], [101, 98, 96, 93, 92, 80, 77, 76, 75, 73, 72, 70, 69, 68, 64, 63, 61, 60, 46], [100, 98, 85, 75, 74, 72, 70, 69, 56, 41, 36], [100, 97, 78, 72, 69, 65, 63, 59, 40, 39], [99, 98, 97, 95, 94, 93, 91, 90, 78, 75, 74, 73, 72, 71, 70, 69, 61, 60, 59, 56], [100, 99, 98, 96, 95, 94, 93, 92, 90, 82, 73, 72, 71, 69, 68, 66, 64, 56, 53], [98, 96, 95, 88, 79, 72, 71, 70, 68, 64, 62, 55, 51, 46], [100, 99, 97, 96, 95, 94, 92, 90, 82, 77, 75, 74, 73, 71, 70, 69, 68, 63, 62, 61], [101, 100, 99, 96, 94, 91, 90, 89, 84, 82, 75, 74, 72, 70, 69, 68, 64, 52, 51], [101, 100, 98, 97, 96, 95, 94, 93, 91, 88, 87, 85, 73, 72, 71, 68, 61, 57, 55], [101, 99, 98, 97, 96, 95, 93, 88, 69, 68, 61, 60, 55, 46], [101, 99, 96, 93, 91, 90, 89, 84, 83, 70, 69, 68, 55, 52], [99, 93, 87, 79, 78, 76, 75, 74, 72, 71, 70, 56, 52], [98, 97, 93, 90, 87, 77, 76, 74, 73, 68, 66, 62, 61, 56], [98, 97, 95, 94, 93, 92, 91, 88, 85, 82, 81, 74, 71, 70, 69, 62], [99, 96, 95, 94, 93, 90, 86, 76, 69, 68, 63, 57, 55], [98, 97, 96, 95, 94, 93, 89, 88, 85, 74, 70, 69, 55], [97, 95, 94, 92, 91, 89, 82, 71, 69, 65, 61, 60], [96, 94, 93, 92, 91, 89, 84, 83, 82, 69, 68, 52], [96, 93, 92, 91, 90, 87, 86, 83, 72, 71, 68, 57], [100, 96, 93, 92, 90, 88, 76, 75, 73, 64, 60], [96, 94, 93, 92, 91, 90, 88, 85, 84, 82, 74, 58], [101, 94, 93, 91, 90, 87, 86, 84, 68, 55], [95, 94, 84, 82, 81, 75, 70, 69, 63], [97, 95, 92, 90, 85, 82, 73, 71, 56], [95, 93, 91, 88, 87, 83, 81, 71, 70, 62], [98, 96, 94, 92, 90, 88, 87, 84, 83, 82, 73], [97, 93, 91, 88, 86, 82, 73, 71, 68], [96, 94, 91, 88, 85, 84, 82, 70, 68], [97, 91, 88, 87, 85, 84, 70, 68], [98, 91, 90, 87, 85, 82, 61], [92, 90, 87, 84, 82, 74, 64], [94, 91, 90, 87, 86, 85, 84, 83], [97, 93, 90, 87, 85, 82, 72], [98, 90, 89, 84, 83, 82, 81], [86, 85, 81, 73], [97, 96, 81, 69], [93, 83, 60], [95, 88, 85, 81], [91, 84, 74], [87, 84, 70], [92, 59], [88, 86, 81], [89, 82, 81], [83, 68], [82, 81], [85, 81], [86, 83], [89, 84], [88, 85], [83, 81], [90, 81], [85, 81], [84, 82], [81], [87], [86], [84], [81], [89], [83], [83], [82], [83], [92], [91], [95], [102], [102], [102], [102], [102], [102], [102], [102], [102], [102], [102], [102], [102], [102], [102], [102], [102], [102], [102], [102], [102], []]
letting durations = [[0], [6, 6, 9], [8, 8, 10], [1, 3, 4], [2, 3, 4], [1, 2, 6], [4, 9, 10], [5, 6, 10], [5, 9, 10], [2, 2, 3], [2, 4, 6], [3, 3, 4], [3, 4, 5], [5, 6, 8], [2, 5, 7], [3, 3, 9], [5, 10, 10], [1, 9, 10], [8, 9, 10], [2, 6, 6], [2, 7, 10], [5, 6, 9], [5, 8, 9], [3, 4, 6], [4, 5, 8], [3, 7, 7], [4, 7, 10], [6, 7, 9], [3, 3, 7], [3, 8, 9], [1, 3, 5], [3, 9, 9], [2, 4, 7], [3, 7, 10], [7, 9, 10], [3, 5, 6], [2, 5, 9], [2, 4, 10], [7, 8, 9], [3, 6, 9], [2, 5, 7], [7, 8, 8], [3, 6, 10], [4, 6, 10], [3, 4, 6], [1, 4, 9], [2, 5, 10], [2, 3, 8], [1, 6, 6], [5, 6, 7], [1, 6, 8], [5, 8, 9], [2, 7, 9], [1, 7, 10], [1, 2, 10], [6, 6, 10], [3, 5, 10], [3, 7, 10], [1, 6, 10], [1, 5, 7], [1, 2, 7], [4, 8, 9], [5, 6, 8], [3, 5, 7], [8, 8, 9], [6, 9, 9], [3, 5, 7], [4, 6, 9], [1, 2, 9], [4, 6, 7], [4, 5, 8], [4, 6, 10], [2, 6, 7], [1, 2, 9], [3, 4, 5], [6, 7, 9], [2, 5, 10], [1, 2, 6], [1, 1, 5], [3, 4, 7], [4, 8, 9], [4, 5, 9], [6, 8, 10], [3, 9, 10], [1, 3, 5], [5, 5, 9], [4, 7, 9], [6, 9, 10], [2, 7, 8], [2, 8, 9], [3, 7, 8], [6, 8, 9], [1, 7, 10], [4, 6, 8], [2, 8, 10], [2, 3, 9], [2, 3, 5], [1, 5, 7], [4, 4, 8], [3, 4, 9], [1, 5, 8], [0]]
letting resourceUsage = [[[0, 0, 0, 0]], [[0, 5, 0, 10], [2, 0, 8, 0], [0, 5, 7, 0]], [[0, 7, 7, 0], [8, 0, 0, 9], [8, 0, 3, 0]], [[5, 0, 8, 0], [0, 7, 0, 7], [0, 4, 0, 7]], [[0, 8, 0, 9], [0, 7, 0, 7], [2, 0, 2, 0]], [[8, 0, 2, 0], [5, 0, 1, 0], [0, 6, 0, 9]], [[7, 0, 4, 0], [0, 3, 2, 0], [7, 0, 2, 0]], [[5, 0, 0, 7], [5, 0, 0, 6], [4, 0, 0, 5]], [[0, 5, 0, 2], [2, 0, 8, 0], [2, 0, 0, 2]], [[6, 0, 10, 0], [0, 7, 4, 0], [5, 0, 0, 4]], [[0, 5, 0, 10], [8, 0, 0, 9], [0, 2, 0, 9]], [[0, 5, 9, 0], [6, 0, 0, 3], [0, 1, 0, 3]], [[1, 0, 0, 7], [1, 0, 0, 6], [0, 6, 1, 0]], [[8, 0, 10, 0], [0, 7, 0, 8], [0, 6, 0, 8]], [[7, 0, 8, 0], [0, 2, 0, 4], [0, 1, 7, 0]], [[0, 2, 6, 0], [2, 0, 4, 0], [2, 0, 2, 0]], [[0, 8, 0, 9], [3, 0, 6, 0], [3, 0, 0, 4]], [[0, 2, 5, 0], [0, 2, 0, 6], [6, 0, 0, 6]], [[4, 0, 6, 0], [2, 0, 6, 0], [2, 0, 4, 0]], [[0, 7, 6, 0], [0, 3, 0, 4], [0, 3, 6, 0]], [[0, 9, 0, 7], [0, 7, 5, 0], [5, 0, 0, 7]], [[4, 0, 0, 9], [0, 3, 7, 0], [0, 3, 6, 0]], [[8, 0, 0, 6], [0, 5, 0, 5], [4, 0, 0, 4]], [[0, 2, 8, 0], [0, 2, 7, 0], [0, 2, 5, 0]], [[0, 7, 4, 0], [0, 7, 3, 0], [0, 4, 0, 4]], [[4, 0, 0, 7], [0, 2, 6, 0], [4, 0, 0, 3]], [[1, 0, 2, 0], [0, 8, 0, 6], [0, 8, 2, 0]], [[0, 10, 4, 0], [7, 0, 0, 7], [6, 0, 2, 0]], [[8, 0, 8, 0], [0, 1, 6, 0], [0, 1, 0, 7]], [[0, 9, 0, 2], [0, 8, 0, 2], [0, 7, 0, 2]], [[0, 9, 7, 0], [8, 0, 0, 3], [0, 6, 0, 2]], [[7, 0, 5, 0], [0, 1, 5, 0], [0, 1, 0, 4]], [[0, 6, 9, 0], [9, 0, 0, 8], [0, 5, 2, 0]], [[0, 8, 0, 8], [0, 7, 7, 0], [9, 0, 3, 0]], [[9, 0, 7, 0], [0, 8, 0, 9], [0, 7, 0, 8]], [[0, 3, 5, 0], [4, 0, 0, 8], [4, 0, 4, 0]], [[3, 0, 3, 0], [0, 4, 0, 6], [3, 0, 1, 0]], [[0, 8, 0, 3], [5, 0, 7, 0], [0, 5, 0, 1]], [[0, 4, 4, 0], [5, 0, 2, 0], [4, 0, 1, 0]], [[9, 0, 5, 0], [0, 4, 0, 6], [8, 0, 1, 0]], [[0, 8, 0, 9], [0, 7, 3, 0], [6, 0, 2, 0]], [[0, 7, 6, 0], [4, 0, 5, 0], [0, 5, 4, 0]], [[8, 0, 3, 0], [6, 0, 3, 0], [0, 2, 0, 7]], [[0, 9, 0, 6], [8, 0, 0, 5], [8, 0, 8, 0]], [[5, 0, 6, 0], [0, 5, 4, 0], [3, 0, 4, 0]], [[7, 0, 0, 9], [6, 0, 0, 7], [6, 0, 0, 6]], [[4, 0, 0, 8], [3, 0, 8, 0], [0, 4, 0, 3]], [[6, 0, 0, 8], [4, 0, 5, 0], [0, 8, 4, 0]], [[1, 0, 5, 0], [1, 0, 3, 0], [0, 8, 0, 1]], [[7, 0, 5, 0], [5, 0, 0, 8], [4, 0, 0, 7]], [[7, 0, 0, 9], [6, 0, 0, 7], [0, 6, 0, 4]], [[9, 0, 9, 0], [0, 10, 0, 7], [8, 0, 9, 0]], [[8, 0, 0, 8], [0, 7, 7, 0], [3, 0, 0, 7]], [[0, 3, 0, 8], [7, 0, 0, 4], [6, 0, 1, 0]], [[0, 9, 7, 0], [0, 8, 4, 0], [0, 7, 3, 0]], [[0, 8, 0, 6], [0, 5, 5, 0], [0, 3, 3, 0]], [[8, 0, 0, 5], [6, 0, 7, 0], [0, 2, 7, 0]], [[3, 0, 10, 0], [3, 0, 0, 4], [0, 4, 10, 0]], [[0, 2, 0, 6], [0, 2, 6, 0], [2, 0, 0, 4]], [[8, 0, 0, 8], [7, 0, 8, 0], [7, 0, 7, 0]], [[0, 8, 0, 8], [3, 0, 5, 0], [0, 3, 0, 5]], [[0, 2, 9, 0], [2, 0, 0, 9], [0, 2, 7, 0]], [[0, 3, 7, 0], [5, 0, 0, 3], [4, 0, 0, 1]], [[7, 0, 0, 7], [0, 7, 7, 0], [3, 0, 7, 0]], [[0, 7, 5, 0], [5, 0, 0, 9], [4, 0, 0, 9]], [[3, 0, 5, 0], [0, 9, 0, 3], [2, 0, 2, 0]], [[5, 0, 0, 8], [4, 0, 2, 0], [1, 0, 1, 0]], [[6, 0, 6, 0], [6, 0, 5, 0], [0, 8, 0, 5]], [[0, 1, 0, 5], [0, 1, 6, 0], [2, 0, 0, 4]], [[8, 0, 0, 7], [0, 2, 6, 0], [8, 0, 3, 0]], [[0, 10, 0, 5], [0, 8, 5, 0], [0, 8, 0, 2]], [[0, 4, 0, 9], [5, 0, 0, 8], [3, 0, 4, 0]], [[1, 0, 2, 0], [1, 0, 0, 3], [1, 0, 0, 1]], [[0, 6, 0, 5], [0, 5, 6, 0], [0, 5, 4, 0]], [[0, 5, 0, 8], [3, 0, 9, 0], [2, 0, 9, 0]], [[0, 2, 0, 8], [4, 0, 1, 0], [2, 0, 1, 0]], [[8, 0, 10, 0], [0, 8, 9, 0], [0, 8, 8, 0]], [[0, 6, 0, 9], [7, 0, 2, 0], [6, 0, 1, 0]], [[0, 8, 0, 4], [0, 7, 4, 0], [0, 3, 4, 0]], [[8, 0, 0, 8], [0, 7, 0, 5], [3, 0, 6, 0]], [[10, 0, 0, 5], [0, 4, 0, 3], [3, 0, 0, 2]], [[0, 8, 0, 5], [0, 5, 6, 0], [0, 4, 0, 2]], [[0, 10, 8, 0], [0, 8, 6, 0], [3, 0, 0, 6]], [[5, 0, 0, 8], [5, 0, 7, 0], [4, 0, 7, 0]], [[0, 7, 0, 9], [0, 7, 7, 0], [3, 0, 6, 0]], [[0, 9, 3, 0], [4, 0, 3, 0], [4, 0, 1, 0]], [[0, 6, 3, 0], [0, 6, 0, 6], [0, 2, 0, 6]], [[0, 4, 2, 0], [0, 4, 0, 4], [3, 0, 2, 0]], [[0, 8, 9, 0], [3, 0, 0, 1], [1, 0, 0, 1]], [[0, 8, 7, 0], [0, 6, 6, 0], [0, 6, 5, 0]], [[7, 0, 0, 8], [7, 0, 0, 6], [7, 0, 7, 0]], [[0, 7, 0, 10], [0, 4, 0, 7], [0, 3, 0, 3]], [[8, 0, 5, 0], [0, 4, 4, 0], [0, 3, 2, 0]], [[7, 0, 8, 0], [3, 0, 6, 0], [0, 4, 0, 2]], [[0, 3, 2, 0], [0, 3, 1, 0], [0, 3, 0, 2]], [[4, 0, 5, 0], [2, 0, 4, 0], [2, 0, 2, 0]], [[0, 7, 0, 9], [0, 5, 0, 7], [4, 0, 6, 0]], [[0, 5, 0, 5], [0, 4, 7, 0], [0, 3, 0, 3]], [[6, 0, 1, 0], [0, 7, 0, 3], [5, 0, 0, 2]], [[6, 0, 10, 0], [6, 0, 6, 0], [0, 5, 0, 7]], [[0, 7, 5, 0], [0, 7, 0, 7], [2, 0, 0, 7]], [[0, 0, 0, 0]]]
